*HEADING
PPR v0.4 bearing plate screening; SI units m N Pa
*NODE
1,0.000000,0.000000,0.000000
2,0.010000,0.000000,0.000000
3,0.020000,0.000000,0.000000
4,0.030000,0.000000,0.000000
5,0.040000,0.000000,0.000000
6,0.050000,0.000000,0.000000
7,0.060000,0.000000,0.000000
8,0.070000,0.000000,0.000000
9,0.080000,0.000000,0.000000
10,0.090000,0.000000,0.000000
11,0.100000,0.000000,0.000000
12,0.110000,0.000000,0.000000
13,0.120000,0.000000,0.000000
14,0.000000,0.010000,0.000000
15,0.010000,0.010000,0.000000
16,0.020000,0.010000,0.000000
17,0.030000,0.010000,0.000000
18,0.040000,0.010000,0.000000
19,0.050000,0.010000,0.000000
20,0.060000,0.010000,0.000000
21,0.070000,0.010000,0.000000
22,0.080000,0.010000,0.000000
23,0.090000,0.010000,0.000000
24,0.100000,0.010000,0.000000
25,0.110000,0.010000,0.000000
26,0.120000,0.010000,0.000000
27,0.000000,0.020000,0.000000
28,0.010000,0.020000,0.000000
29,0.020000,0.020000,0.000000
30,0.030000,0.020000,0.000000
31,0.040000,0.020000,0.000000
32,0.050000,0.020000,0.000000
33,0.060000,0.020000,0.000000
34,0.070000,0.020000,0.000000
35,0.080000,0.020000,0.000000
36,0.090000,0.020000,0.000000
37,0.100000,0.020000,0.000000
38,0.110000,0.020000,0.000000
39,0.120000,0.020000,0.000000
40,0.000000,0.030000,0.000000
41,0.010000,0.030000,0.000000
42,0.020000,0.030000,0.000000
43,0.030000,0.030000,0.000000
44,0.040000,0.030000,0.000000
45,0.050000,0.030000,0.000000
46,0.060000,0.030000,0.000000
47,0.070000,0.030000,0.000000
48,0.080000,0.030000,0.000000
49,0.090000,0.030000,0.000000
50,0.100000,0.030000,0.000000
51,0.110000,0.030000,0.000000
52,0.120000,0.030000,0.000000
53,0.000000,0.040000,0.000000
54,0.010000,0.040000,0.000000
55,0.020000,0.040000,0.000000
56,0.030000,0.040000,0.000000
57,0.040000,0.040000,0.000000
58,0.050000,0.040000,0.000000
59,0.060000,0.040000,0.000000
60,0.070000,0.040000,0.000000
61,0.080000,0.040000,0.000000
62,0.090000,0.040000,0.000000
63,0.100000,0.040000,0.000000
64,0.110000,0.040000,0.000000
65,0.120000,0.040000,0.000000
66,0.000000,0.050000,0.000000
67,0.010000,0.050000,0.000000
68,0.020000,0.050000,0.000000
69,0.030000,0.050000,0.000000
70,0.040000,0.050000,0.000000
71,0.050000,0.050000,0.000000
72,0.060000,0.050000,0.000000
73,0.070000,0.050000,0.000000
74,0.080000,0.050000,0.000000
75,0.090000,0.050000,0.000000
76,0.100000,0.050000,0.000000
77,0.110000,0.050000,0.000000
78,0.120000,0.050000,0.000000
79,0.000000,0.060000,0.000000
80,0.010000,0.060000,0.000000
81,0.020000,0.060000,0.000000
82,0.030000,0.060000,0.000000
83,0.040000,0.060000,0.000000
84,0.050000,0.060000,0.000000
85,0.060000,0.060000,0.000000
86,0.070000,0.060000,0.000000
87,0.080000,0.060000,0.000000
88,0.090000,0.060000,0.000000
89,0.100000,0.060000,0.000000
90,0.110000,0.060000,0.000000
91,0.120000,0.060000,0.000000
92,0.000000,0.070000,0.000000
93,0.010000,0.070000,0.000000
94,0.020000,0.070000,0.000000
95,0.030000,0.070000,0.000000
96,0.040000,0.070000,0.000000
97,0.050000,0.070000,0.000000
98,0.060000,0.070000,0.000000
99,0.070000,0.070000,0.000000
100,0.080000,0.070000,0.000000
101,0.090000,0.070000,0.000000
102,0.100000,0.070000,0.000000
103,0.110000,0.070000,0.000000
104,0.120000,0.070000,0.000000
105,0.000000,0.080000,0.000000
106,0.010000,0.080000,0.000000
107,0.020000,0.080000,0.000000
108,0.030000,0.080000,0.000000
109,0.040000,0.080000,0.000000
110,0.050000,0.080000,0.000000
111,0.060000,0.080000,0.000000
112,0.070000,0.080000,0.000000
113,0.080000,0.080000,0.000000
114,0.090000,0.080000,0.000000
115,0.100000,0.080000,0.000000
116,0.110000,0.080000,0.000000
117,0.120000,0.080000,0.000000
118,0.000000,0.090000,0.000000
119,0.010000,0.090000,0.000000
120,0.020000,0.090000,0.000000
121,0.030000,0.090000,0.000000
122,0.040000,0.090000,0.000000
123,0.050000,0.090000,0.000000
124,0.060000,0.090000,0.000000
125,0.070000,0.090000,0.000000
126,0.080000,0.090000,0.000000
127,0.090000,0.090000,0.000000
128,0.100000,0.090000,0.000000
129,0.110000,0.090000,0.000000
130,0.120000,0.090000,0.000000
131,0.000000,0.100000,0.000000
132,0.010000,0.100000,0.000000
133,0.020000,0.100000,0.000000
134,0.030000,0.100000,0.000000
135,0.040000,0.100000,0.000000
136,0.050000,0.100000,0.000000
137,0.060000,0.100000,0.000000
138,0.070000,0.100000,0.000000
139,0.080000,0.100000,0.000000
140,0.090000,0.100000,0.000000
141,0.100000,0.100000,0.000000
142,0.110000,0.100000,0.000000
143,0.120000,0.100000,0.000000
144,0.000000,0.000000,0.006000
145,0.010000,0.000000,0.006000
146,0.020000,0.000000,0.006000
147,0.030000,0.000000,0.006000
148,0.040000,0.000000,0.006000
149,0.050000,0.000000,0.006000
150,0.060000,0.000000,0.006000
151,0.070000,0.000000,0.006000
152,0.080000,0.000000,0.006000
153,0.090000,0.000000,0.006000
154,0.100000,0.000000,0.006000
155,0.110000,0.000000,0.006000
156,0.120000,0.000000,0.006000
157,0.000000,0.010000,0.006000
158,0.010000,0.010000,0.006000
159,0.020000,0.010000,0.006000
160,0.030000,0.010000,0.006000
161,0.040000,0.010000,0.006000
162,0.050000,0.010000,0.006000
163,0.060000,0.010000,0.006000
164,0.070000,0.010000,0.006000
165,0.080000,0.010000,0.006000
166,0.090000,0.010000,0.006000
167,0.100000,0.010000,0.006000
168,0.110000,0.010000,0.006000
169,0.120000,0.010000,0.006000
170,0.000000,0.020000,0.006000
171,0.010000,0.020000,0.006000
172,0.020000,0.020000,0.006000
173,0.030000,0.020000,0.006000
174,0.040000,0.020000,0.006000
175,0.050000,0.020000,0.006000
176,0.060000,0.020000,0.006000
177,0.070000,0.020000,0.006000
178,0.080000,0.020000,0.006000
179,0.090000,0.020000,0.006000
180,0.100000,0.020000,0.006000
181,0.110000,0.020000,0.006000
182,0.120000,0.020000,0.006000
183,0.000000,0.030000,0.006000
184,0.010000,0.030000,0.006000
185,0.020000,0.030000,0.006000
186,0.030000,0.030000,0.006000
187,0.040000,0.030000,0.006000
188,0.050000,0.030000,0.006000
189,0.060000,0.030000,0.006000
190,0.070000,0.030000,0.006000
191,0.080000,0.030000,0.006000
192,0.090000,0.030000,0.006000
193,0.100000,0.030000,0.006000
194,0.110000,0.030000,0.006000
195,0.120000,0.030000,0.006000
196,0.000000,0.040000,0.006000
197,0.010000,0.040000,0.006000
198,0.020000,0.040000,0.006000
199,0.030000,0.040000,0.006000
200,0.040000,0.040000,0.006000
201,0.050000,0.040000,0.006000
202,0.060000,0.040000,0.006000
203,0.070000,0.040000,0.006000
204,0.080000,0.040000,0.006000
205,0.090000,0.040000,0.006000
206,0.100000,0.040000,0.006000
207,0.110000,0.040000,0.006000
208,0.120000,0.040000,0.006000
209,0.000000,0.050000,0.006000
210,0.010000,0.050000,0.006000
211,0.020000,0.050000,0.006000
212,0.030000,0.050000,0.006000
213,0.040000,0.050000,0.006000
214,0.050000,0.050000,0.006000
215,0.060000,0.050000,0.006000
216,0.070000,0.050000,0.006000
217,0.080000,0.050000,0.006000
218,0.090000,0.050000,0.006000
219,0.100000,0.050000,0.006000
220,0.110000,0.050000,0.006000
221,0.120000,0.050000,0.006000
222,0.000000,0.060000,0.006000
223,0.010000,0.060000,0.006000
224,0.020000,0.060000,0.006000
225,0.030000,0.060000,0.006000
226,0.040000,0.060000,0.006000
227,0.050000,0.060000,0.006000
228,0.060000,0.060000,0.006000
229,0.070000,0.060000,0.006000
230,0.080000,0.060000,0.006000
231,0.090000,0.060000,0.006000
232,0.100000,0.060000,0.006000
233,0.110000,0.060000,0.006000
234,0.120000,0.060000,0.006000
235,0.000000,0.070000,0.006000
236,0.010000,0.070000,0.006000
237,0.020000,0.070000,0.006000
238,0.030000,0.070000,0.006000
239,0.040000,0.070000,0.006000
240,0.050000,0.070000,0.006000
241,0.060000,0.070000,0.006000
242,0.070000,0.070000,0.006000
243,0.080000,0.070000,0.006000
244,0.090000,0.070000,0.006000
245,0.100000,0.070000,0.006000
246,0.110000,0.070000,0.006000
247,0.120000,0.070000,0.006000
248,0.000000,0.080000,0.006000
249,0.010000,0.080000,0.006000
250,0.020000,0.080000,0.006000
251,0.030000,0.080000,0.006000
252,0.040000,0.080000,0.006000
253,0.050000,0.080000,0.006000
254,0.060000,0.080000,0.006000
255,0.070000,0.080000,0.006000
256,0.080000,0.080000,0.006000
257,0.090000,0.080000,0.006000
258,0.100000,0.080000,0.006000
259,0.110000,0.080000,0.006000
260,0.120000,0.080000,0.006000
261,0.000000,0.090000,0.006000
262,0.010000,0.090000,0.006000
263,0.020000,0.090000,0.006000
264,0.030000,0.090000,0.006000
265,0.040000,0.090000,0.006000
266,0.050000,0.090000,0.006000
267,0.060000,0.090000,0.006000
268,0.070000,0.090000,0.006000
269,0.080000,0.090000,0.006000
270,0.090000,0.090000,0.006000
271,0.100000,0.090000,0.006000
272,0.110000,0.090000,0.006000
273,0.120000,0.090000,0.006000
274,0.000000,0.100000,0.006000
275,0.010000,0.100000,0.006000
276,0.020000,0.100000,0.006000
277,0.030000,0.100000,0.006000
278,0.040000,0.100000,0.006000
279,0.050000,0.100000,0.006000
280,0.060000,0.100000,0.006000
281,0.070000,0.100000,0.006000
282,0.080000,0.100000,0.006000
283,0.090000,0.100000,0.006000
284,0.100000,0.100000,0.006000
285,0.110000,0.100000,0.006000
286,0.120000,0.100000,0.006000
287,0.000000,0.000000,0.012000
288,0.010000,0.000000,0.012000
289,0.020000,0.000000,0.012000
290,0.030000,0.000000,0.012000
291,0.040000,0.000000,0.012000
292,0.050000,0.000000,0.012000
293,0.060000,0.000000,0.012000
294,0.070000,0.000000,0.012000
295,0.080000,0.000000,0.012000
296,0.090000,0.000000,0.012000
297,0.100000,0.000000,0.012000
298,0.110000,0.000000,0.012000
299,0.120000,0.000000,0.012000
300,0.000000,0.010000,0.012000
301,0.010000,0.010000,0.012000
302,0.020000,0.010000,0.012000
303,0.030000,0.010000,0.012000
304,0.040000,0.010000,0.012000
305,0.050000,0.010000,0.012000
306,0.060000,0.010000,0.012000
307,0.070000,0.010000,0.012000
308,0.080000,0.010000,0.012000
309,0.090000,0.010000,0.012000
310,0.100000,0.010000,0.012000
311,0.110000,0.010000,0.012000
312,0.120000,0.010000,0.012000
313,0.000000,0.020000,0.012000
314,0.010000,0.020000,0.012000
315,0.020000,0.020000,0.012000
316,0.030000,0.020000,0.012000
317,0.040000,0.020000,0.012000
318,0.050000,0.020000,0.012000
319,0.060000,0.020000,0.012000
320,0.070000,0.020000,0.012000
321,0.080000,0.020000,0.012000
322,0.090000,0.020000,0.012000
323,0.100000,0.020000,0.012000
324,0.110000,0.020000,0.012000
325,0.120000,0.020000,0.012000
326,0.000000,0.030000,0.012000
327,0.010000,0.030000,0.012000
328,0.020000,0.030000,0.012000
329,0.030000,0.030000,0.012000
330,0.040000,0.030000,0.012000
331,0.050000,0.030000,0.012000
332,0.060000,0.030000,0.012000
333,0.070000,0.030000,0.012000
334,0.080000,0.030000,0.012000
335,0.090000,0.030000,0.012000
336,0.100000,0.030000,0.012000
337,0.110000,0.030000,0.012000
338,0.120000,0.030000,0.012000
339,0.000000,0.040000,0.012000
340,0.010000,0.040000,0.012000
341,0.020000,0.040000,0.012000
342,0.030000,0.040000,0.012000
343,0.040000,0.040000,0.012000
344,0.050000,0.040000,0.012000
345,0.060000,0.040000,0.012000
346,0.070000,0.040000,0.012000
347,0.080000,0.040000,0.012000
348,0.090000,0.040000,0.012000
349,0.100000,0.040000,0.012000
350,0.110000,0.040000,0.012000
351,0.120000,0.040000,0.012000
352,0.000000,0.050000,0.012000
353,0.010000,0.050000,0.012000
354,0.020000,0.050000,0.012000
355,0.030000,0.050000,0.012000
356,0.040000,0.050000,0.012000
357,0.050000,0.050000,0.012000
358,0.060000,0.050000,0.012000
359,0.070000,0.050000,0.012000
360,0.080000,0.050000,0.012000
361,0.090000,0.050000,0.012000
362,0.100000,0.050000,0.012000
363,0.110000,0.050000,0.012000
364,0.120000,0.050000,0.012000
365,0.000000,0.060000,0.012000
366,0.010000,0.060000,0.012000
367,0.020000,0.060000,0.012000
368,0.030000,0.060000,0.012000
369,0.040000,0.060000,0.012000
370,0.050000,0.060000,0.012000
371,0.060000,0.060000,0.012000
372,0.070000,0.060000,0.012000
373,0.080000,0.060000,0.012000
374,0.090000,0.060000,0.012000
375,0.100000,0.060000,0.012000
376,0.110000,0.060000,0.012000
377,0.120000,0.060000,0.012000
378,0.000000,0.070000,0.012000
379,0.010000,0.070000,0.012000
380,0.020000,0.070000,0.012000
381,0.030000,0.070000,0.012000
382,0.040000,0.070000,0.012000
383,0.050000,0.070000,0.012000
384,0.060000,0.070000,0.012000
385,0.070000,0.070000,0.012000
386,0.080000,0.070000,0.012000
387,0.090000,0.070000,0.012000
388,0.100000,0.070000,0.012000
389,0.110000,0.070000,0.012000
390,0.120000,0.070000,0.012000
391,0.000000,0.080000,0.012000
392,0.010000,0.080000,0.012000
393,0.020000,0.080000,0.012000
394,0.030000,0.080000,0.012000
395,0.040000,0.080000,0.012000
396,0.050000,0.080000,0.012000
397,0.060000,0.080000,0.012000
398,0.070000,0.080000,0.012000
399,0.080000,0.080000,0.012000
400,0.090000,0.080000,0.012000
401,0.100000,0.080000,0.012000
402,0.110000,0.080000,0.012000
403,0.120000,0.080000,0.012000
404,0.000000,0.090000,0.012000
405,0.010000,0.090000,0.012000
406,0.020000,0.090000,0.012000
407,0.030000,0.090000,0.012000
408,0.040000,0.090000,0.012000
409,0.050000,0.090000,0.012000
410,0.060000,0.090000,0.012000
411,0.070000,0.090000,0.012000
412,0.080000,0.090000,0.012000
413,0.090000,0.090000,0.012000
414,0.100000,0.090000,0.012000
415,0.110000,0.090000,0.012000
416,0.120000,0.090000,0.012000
417,0.000000,0.100000,0.012000
418,0.010000,0.100000,0.012000
419,0.020000,0.100000,0.012000
420,0.030000,0.100000,0.012000
421,0.040000,0.100000,0.012000
422,0.050000,0.100000,0.012000
423,0.060000,0.100000,0.012000
424,0.070000,0.100000,0.012000
425,0.080000,0.100000,0.012000
426,0.090000,0.100000,0.012000
427,0.100000,0.100000,0.012000
428,0.110000,0.100000,0.012000
429,0.120000,0.100000,0.012000
*ELEMENT,TYPE=C3D8,ELSET=EALL
1,1,2,15,14,144,145,158,157
2,2,3,16,15,145,146,159,158
3,3,4,17,16,146,147,160,159
4,4,5,18,17,147,148,161,160
5,5,6,19,18,148,149,162,161
6,6,7,20,19,149,150,163,162
7,7,8,21,20,150,151,164,163
8,8,9,22,21,151,152,165,164
9,9,10,23,22,152,153,166,165
10,10,11,24,23,153,154,167,166
11,11,12,25,24,154,155,168,167
12,12,13,26,25,155,156,169,168
13,14,15,28,27,157,158,171,170
14,15,16,29,28,158,159,172,171
15,16,17,30,29,159,160,173,172
16,17,18,31,30,160,161,174,173
17,18,19,32,31,161,162,175,174
18,19,20,33,32,162,163,176,175
19,20,21,34,33,163,164,177,176
20,21,22,35,34,164,165,178,177
21,22,23,36,35,165,166,179,178
22,23,24,37,36,166,167,180,179
23,24,25,38,37,167,168,181,180
24,25,26,39,38,168,169,182,181
25,27,28,41,40,170,171,184,183
26,28,29,42,41,171,172,185,184
27,29,30,43,42,172,173,186,185
28,30,31,44,43,173,174,187,186
29,31,32,45,44,174,175,188,187
30,32,33,46,45,175,176,189,188
31,33,34,47,46,176,177,190,189
32,34,35,48,47,177,178,191,190
33,35,36,49,48,178,179,192,191
34,36,37,50,49,179,180,193,192
35,37,38,51,50,180,181,194,193
36,38,39,52,51,181,182,195,194
37,40,41,54,53,183,184,197,196
38,41,42,55,54,184,185,198,197
39,42,43,56,55,185,186,199,198
40,43,44,57,56,186,187,200,199
41,44,45,58,57,187,188,201,200
42,45,46,59,58,188,189,202,201
43,46,47,60,59,189,190,203,202
44,47,48,61,60,190,191,204,203
45,48,49,62,61,191,192,205,204
46,49,50,63,62,192,193,206,205
47,50,51,64,63,193,194,207,206
48,51,52,65,64,194,195,208,207
49,53,54,67,66,196,197,210,209
50,54,55,68,67,197,198,211,210
51,55,56,69,68,198,199,212,211
52,56,57,70,69,199,200,213,212
53,57,58,71,70,200,201,214,213
54,58,59,72,71,201,202,215,214
55,59,60,73,72,202,203,216,215
56,60,61,74,73,203,204,217,216
57,61,62,75,74,204,205,218,217
58,62,63,76,75,205,206,219,218
59,63,64,77,76,206,207,220,219
60,64,65,78,77,207,208,221,220
61,66,67,80,79,209,210,223,222
62,67,68,81,80,210,211,224,223
63,68,69,82,81,211,212,225,224
64,69,70,83,82,212,213,226,225
65,70,71,84,83,213,214,227,226
66,71,72,85,84,214,215,228,227
67,72,73,86,85,215,216,229,228
68,73,74,87,86,216,217,230,229
69,74,75,88,87,217,218,231,230
70,75,76,89,88,218,219,232,231
71,76,77,90,89,219,220,233,232
72,77,78,91,90,220,221,234,233
73,79,80,93,92,222,223,236,235
74,80,81,94,93,223,224,237,236
75,81,82,95,94,224,225,238,237
76,82,83,96,95,225,226,239,238
77,83,84,97,96,226,227,240,239
78,84,85,98,97,227,228,241,240
79,85,86,99,98,228,229,242,241
80,86,87,100,99,229,230,243,242
81,87,88,101,100,230,231,244,243
82,88,89,102,101,231,232,245,244
83,89,90,103,102,232,233,246,245
84,90,91,104,103,233,234,247,246
85,92,93,106,105,235,236,249,248
86,93,94,107,106,236,237,250,249
87,94,95,108,107,237,238,251,250
88,95,96,109,108,238,239,252,251
89,96,97,110,109,239,240,253,252
90,97,98,111,110,240,241,254,253
91,98,99,112,111,241,242,255,254
92,99,100,113,112,242,243,256,255
93,100,101,114,113,243,244,257,256
94,101,102,115,114,244,245,258,257
95,102,103,116,115,245,246,259,258
96,103,104,117,116,246,247,260,259
97,105,106,119,118,248,249,262,261
98,106,107,120,119,249,250,263,262
99,107,108,121,120,250,251,264,263
100,108,109,122,121,251,252,265,264
101,109,110,123,122,252,253,266,265
102,110,111,124,123,253,254,267,266
103,111,112,125,124,254,255,268,267
104,112,113,126,125,255,256,269,268
105,113,114,127,126,256,257,270,269
106,114,115,128,127,257,258,271,270
107,115,116,129,128,258,259,272,271
108,116,117,130,129,259,260,273,272
109,118,119,132,131,261,262,275,274
110,119,120,133,132,262,263,276,275
111,120,121,134,133,263,264,277,276
112,121,122,135,134,264,265,278,277
113,122,123,136,135,265,266,279,278
114,123,124,137,136,266,267,280,279
115,124,125,138,137,267,268,281,280
116,125,126,139,138,268,269,282,281
117,126,127,140,139,269,270,283,282
118,127,128,141,140,270,271,284,283
119,128,129,142,141,271,272,285,284
120,129,130,143,142,272,273,286,285
121,144,145,158,157,287,288,301,300
122,145,146,159,158,288,289,302,301
123,146,147,160,159,289,290,303,302
124,147,148,161,160,290,291,304,303
125,148,149,162,161,291,292,305,304
126,149,150,163,162,292,293,306,305
127,150,151,164,163,293,294,307,306
128,151,152,165,164,294,295,308,307
129,152,153,166,165,295,296,309,308
130,153,154,167,166,296,297,310,309
131,154,155,168,167,297,298,311,310
132,155,156,169,168,298,299,312,311
133,157,158,171,170,300,301,314,313
134,158,159,172,171,301,302,315,314
135,159,160,173,172,302,303,316,315
136,160,161,174,173,303,304,317,316
137,161,162,175,174,304,305,318,317
138,162,163,176,175,305,306,319,318
139,163,164,177,176,306,307,320,319
140,164,165,178,177,307,308,321,320
141,165,166,179,178,308,309,322,321
142,166,167,180,179,309,310,323,322
143,167,168,181,180,310,311,324,323
144,168,169,182,181,311,312,325,324
145,170,171,184,183,313,314,327,326
146,171,172,185,184,314,315,328,327
147,172,173,186,185,315,316,329,328
148,173,174,187,186,316,317,330,329
149,174,175,188,187,317,318,331,330
150,175,176,189,188,318,319,332,331
151,176,177,190,189,319,320,333,332
152,177,178,191,190,320,321,334,333
153,178,179,192,191,321,322,335,334
154,179,180,193,192,322,323,336,335
155,180,181,194,193,323,324,337,336
156,181,182,195,194,324,325,338,337
157,183,184,197,196,326,327,340,339
158,184,185,198,197,327,328,341,340
159,185,186,199,198,328,329,342,341
160,186,187,200,199,329,330,343,342
161,187,188,201,200,330,331,344,343
162,188,189,202,201,331,332,345,344
163,189,190,203,202,332,333,346,345
164,190,191,204,203,333,334,347,346
165,191,192,205,204,334,335,348,347
166,192,193,206,205,335,336,349,348
167,193,194,207,206,336,337,350,349
168,194,195,208,207,337,338,351,350
169,196,197,210,209,339,340,353,352
170,197,198,211,210,340,341,354,353
171,198,199,212,211,341,342,355,354
172,199,200,213,212,342,343,356,355
173,200,201,214,213,343,344,357,356
174,201,202,215,214,344,345,358,357
175,202,203,216,215,345,346,359,358
176,203,204,217,216,346,347,360,359
177,204,205,218,217,347,348,361,360
178,205,206,219,218,348,349,362,361
179,206,207,220,219,349,350,363,362
180,207,208,221,220,350,351,364,363
181,209,210,223,222,352,353,366,365
182,210,211,224,223,353,354,367,366
183,211,212,225,224,354,355,368,367
184,212,213,226,225,355,356,369,368
185,213,214,227,226,356,357,370,369
186,214,215,228,227,357,358,371,370
187,215,216,229,228,358,359,372,371
188,216,217,230,229,359,360,373,372
189,217,218,231,230,360,361,374,373
190,218,219,232,231,361,362,375,374
191,219,220,233,232,362,363,376,375
192,220,221,234,233,363,364,377,376
193,222,223,236,235,365,366,379,378
194,223,224,237,236,366,367,380,379
195,224,225,238,237,367,368,381,380
196,225,226,239,238,368,369,382,381
197,226,227,240,239,369,370,383,382
198,227,228,241,240,370,371,384,383
199,228,229,242,241,371,372,385,384
200,229,230,243,242,372,373,386,385
201,230,231,244,243,373,374,387,386
202,231,232,245,244,374,375,388,387
203,232,233,246,245,375,376,389,388
204,233,234,247,246,376,377,390,389
205,235,236,249,248,378,379,392,391
206,236,237,250,249,379,380,393,392
207,237,238,251,250,380,381,394,393
208,238,239,252,251,381,382,395,394
209,239,240,253,252,382,383,396,395
210,240,241,254,253,383,384,397,396
211,241,242,255,254,384,385,398,397
212,242,243,256,255,385,386,399,398
213,243,244,257,256,386,387,400,399
214,244,245,258,257,387,388,401,400
215,245,246,259,258,388,389,402,401
216,246,247,260,259,389,390,403,402
217,248,249,262,261,391,392,405,404
218,249,250,263,262,392,393,406,405
219,250,251,264,263,393,394,407,406
220,251,252,265,264,394,395,408,407
221,252,253,266,265,395,396,409,408
222,253,254,267,266,396,397,410,409
223,254,255,268,267,397,398,411,410
224,255,256,269,268,398,399,412,411
225,256,257,270,269,399,400,413,412
226,257,258,271,270,400,401,414,413
227,258,259,272,271,401,402,415,414
228,259,260,273,272,402,403,416,415
229,261,262,275,274,404,405,418,417
230,262,263,276,275,405,406,419,418
231,263,264,277,276,406,407,420,419
232,264,265,278,277,407,408,421,420
233,265,266,279,278,408,409,422,421
234,266,267,280,279,409,410,423,422
235,267,268,281,280,410,411,424,423
236,268,269,282,281,411,412,425,424
237,269,270,283,282,412,413,426,425
238,270,271,284,283,413,414,427,426
239,271,272,285,284,414,415,428,427
240,272,273,286,285,415,416,429,428
*NSET,NSET=FIXED
1,14,27,40,53,66,79,92,105,118,131,144,157,170,183,196
209,222,235,248,261,274,287,300,313,326,339,352,365,378,391,404
417
*NSET,NSET=LOADED
65,78,91,208,221,234,351,364,377
*SOLID SECTION,ELSET=EALL,MATERIAL=S275

*MATERIAL,NAME=S275
*ELASTIC
2.05E11,0.30
*BOUNDARY
FIXED,1,3,0
*STEP
*STATIC
0.1,1.0
*CLOAD
LOADED,3,-158.440026257
*NODE FILE,NSET=LOADED
U
*EL FILE
S
*END STEP
