*HEADING
PPR v0.6 cutter shaft screening; SI units m N Pa
*NODE
1,0.000000,0,0
2,0.005000,0,0
3,0.010000,0,0
4,0.015000,0,0
5,0.020000,0,0
6,0.025000,0,0
7,0.030000,0,0
*ELEMENT,TYPE=B31,ELSET=EALL
1,1,2
2,2,3
3,3,4
4,4,5
5,5,6
6,6,7
*NSET,NSET=FIXED
1
*NSET,NSET=FREE
7
*BEAM SECTION,ELSET=EALL,MATERIAL=S45C,SECTION=RECT
0.01772,0.01772
0,0,1
*MATERIAL,NAME=S45C
*ELASTIC
2.05E11,0.29
*BOUNDARY
FIXED,1,6,0
*STEP
*STATIC
0.1,1.0
*CLOAD
FREE,3,-1856.544175557
FREE,4,21.993750004
*NODE FILE
U
*EL FILE
S
*END STEP
