*HEADING
PET uncalibrated coupon sensitivity
*NODE
1,0.0,0,0
2,0.0,5.0,0
3,0.0,5.0,1.0
4,0.0,0,1.0
5,2.5,0,0
6,2.5,5.0,0
7,2.5,5.0,1.0
8,2.5,0,1.0
9,5.0,0,0
10,5.0,5.0,0
11,5.0,5.0,1.0
12,5.0,0,1.0
13,7.5,0,0
14,7.5,5.0,0
15,7.5,5.0,1.0
16,7.5,0,1.0
17,10.0,0,0
18,10.0,5.0,0
19,10.0,5.0,1.0
20,10.0,0,1.0
21,12.5,0,0
22,12.5,5.0,0
23,12.5,5.0,1.0
24,12.5,0,1.0
25,15.0,0,0
26,15.0,5.0,0
27,15.0,5.0,1.0
28,15.0,0,1.0
29,17.5,0,0
30,17.5,5.0,0
31,17.5,5.0,1.0
32,17.5,0,1.0
33,20.0,0,0
34,20.0,5.0,0
35,20.0,5.0,1.0
36,20.0,0,1.0
*ELEMENT,TYPE=C3D8,ELSET=ALL
1,1,5,6,2,4,8,7,3
2,5,9,10,6,8,12,11,7
3,9,13,14,10,12,16,15,11
4,13,17,18,14,16,20,19,15
5,17,21,22,18,20,24,23,19
6,21,25,26,22,24,28,27,23
7,25,29,30,26,28,32,31,27
8,29,33,34,30,32,36,35,31
*NSET,NSET=LEFT
1,2,3,4
*NSET,NSET=RIGHT
33,34,35,36
*MATERIAL,NAME=PET
*ELASTIC
2500.0,0.38
*SOLID SECTION,ELSET=ALL,MATERIAL=PET
*STEP,NLGEOM=YES,INC=200
*STATIC
.05,1.,1e-8,.1
*BOUNDARY
LEFT,1,3,0
RIGHT,1,1,0.2
*NODE PRINT,NSET=RIGHT
RF,U
*EL PRINT,ELSET=ALL
S,E
*END STEP
