*HEADING
PLA uncalibrated coupon sensitivity
*NODE
1,0.0,0,0
2,0.0,5.0,0
3,0.0,5.0,1.0
4,0.0,0,1.0
5,5.0,0,0
6,5.0,5.0,0
7,5.0,5.0,1.0
8,5.0,0,1.0
9,10.0,0,0
10,10.0,5.0,0
11,10.0,5.0,1.0
12,10.0,0,1.0
13,15.0,0,0
14,15.0,5.0,0
15,15.0,5.0,1.0
16,15.0,0,1.0
17,20.0,0,0
18,20.0,5.0,0
19,20.0,5.0,1.0
20,20.0,0,1.0
*ELEMENT,TYPE=C3D8,ELSET=ALL
1,1,5,6,2,4,8,7,3
2,5,9,10,6,8,12,11,7
3,9,13,14,10,12,16,15,11
4,13,17,18,14,16,20,19,15
*NSET,NSET=LEFT
1,2,3,4
*NSET,NSET=RIGHT
17,18,19,20
*MATERIAL,NAME=PLA
*ELASTIC
3000.0,0.36
*SOLID SECTION,ELSET=ALL,MATERIAL=PLA
*STEP,NLGEOM=YES,INC=200
*STATIC
.05,1.,1e-8,.1
*BOUNDARY
LEFT,1,3,0
RIGHT,1,1,0.2
*NODE PRINT,NSET=RIGHT
RF,U
*EL PRINT,ELSET=ALL
S,E
*END STEP
